============================[ Problem Statistics ]=============================|                                                                             ||  Number of variables:          4242                                         ||  Number of clauses:           10089                                         ||  Parse time:                   0.48 s                                       ||                                                                             |============================[ Search Statistics ]==============================| Conflicts |          ORIGINAL         |          LEARNT          | Progress ||           |    Vars  Clauses Literals |    Limit  Clauses Lit/Cl |          |===============================================================================|       100 |    1591     6294   761155 |     2307      100     53 | 62.501 % ||       250 |    1591     6294   761155 |     2538      250     75 | 62.495 % |===============================================================================restarts              : 3conflicts             : 269            (374 /sec)decisions             : 535            (0.00 % random) (744 /sec)propagations          : 11791          (16399 /sec)conflict literals     : 20698          (94.83 % deleted)CPU time              : 0.719 sSATISFIABLE